data/MCDM/NO_CORR/GEN_FROM_60/17_ITEMS_1000_GEN/K5017W09.KNP.mps
NAME          BLANK   
ROWS
 N  OBJROW
 L  R0000000
COLUMNS
    C0000000  OBJROW     -38.          R0000000  664.        
    C0000001  OBJROW     -996.         R0000000  553.        
    C0000002  OBJROW     -167.         R0000000  138.        
    C0000003  OBJROW     -754.         R0000000  101.        
    C0000004  OBJROW     -407.         R0000000  119.        
    C0000005  OBJROW     -244.         R0000000  369.        
    C0000006  OBJROW     -301.         R0000000  844.        
    C0000007  OBJROW     -392.         R0000000  740.        
    C0000008  OBJROW     -866.         R0000000  150.        
    C0000009  OBJROW     -817.         R0000000  845.        
    C0000010  OBJROW     -546.         R0000000  111.        
    C0000011  OBJROW     -17.          R0000000  263.        
    C0000012  OBJROW     -304.         R0000000  390.        
    C0000013  OBJROW     -650.         R0000000  75.         
    C0000014  OBJROW     -667.         R0000000  511.        
    C0000015  OBJROW     -625.         R0000000  120.        
    C0000016  OBJROW     -577.         R0000000  945.        
RHS
    RHS       R0000000  14716.      
BOUNDS
 BV BOUND     C0000000  1.          
 BV BOUND     C0000001  1.          
 BV BOUND     C0000002  1.          
 BV BOUND     C0000003  1.          
 BV BOUND     C0000004  1.          
 BV BOUND     C0000005  1.          
 BV BOUND     C0000006  1.          
 BV BOUND     C0000007  1.          
 BV BOUND     C0000008  1.          
 BV BOUND     C0000009  1.          
 BV BOUND     C0000010  1.          
 BV BOUND     C0000011  1.          
 BV BOUND     C0000012  1.          
 BV BOUND     C0000013  1.          
 BV BOUND     C0000014  1.          
 BV BOUND     C0000015  1.          
 BV BOUND     C0000016  1.          
ENDATA
