interdiction/MCDM/NO_CORR/GEN_FROM_60/17_ITEMS_1000_GEN/K5017W09.KNP.txt
N 17
M 18
LC 17
LC 18
LC 19
LC 20
LC 21
LC 22
LC 23
LC 24
LC 25
LC 26
LC 27
LC 28
LC 29
LC 30
LC 31
LC 32
LC 33
LR 1
LR 2
LR 3
LR 4
LR 5
LR 6
LR 7
LR 8
LR 9
LR 10
LR 11
LR 12
LR 13
LR 14
LR 15
LR 16
LR 17
LR 18
LO -38
LO -996
LO -167
LO -754
LO -407
LO -244
LO -301
LO -392
LO -866
LO -817
LO -546
LO -17
LO -304
LO -650
LO -667
LO -625
LO -577
OS 1
IC 104
IC 298
IC 937
IC 147
IC 602
IC 553
IC 602
IC 602
IC 401
IC 82
IC 371
IC 269
IC 543
IC 910
IC 955
IC 276
IC 253
IB 3953
